67
Time limit set to 60 seconds
Running CP solver
/home/omastto1/General-Optimization-Solver/src/solvers/mmrcpsp.py:42(stream:108:6): Warning: Cumulative expression 'pulse': height is zero, expression is zero everywhere.
                                                                                               VarCumulAtom_149 = pulse(task_0_mode_0, 0)
/home/omastto1/General-Optimization-Solver/src/solvers/mmrcpsp.py:42(stream:108:1254): Warning: Cumulative expression 'pulse': height is zero, expression is zero everywhere.
                                                                                                  VarCumulAtom_198 = pulse(task_17_mode_0, 0)
/home/omastto1/General-Optimization-Solver/src/solvers/mmrcpsp.py:42(stream:109:6): Warning: Cumulative expression 'pulse': height is zero, expression is zero everywhere.
                                                                                               VarCumulAtom_202 = pulse(task_0_mode_0, 0)
/home/omastto1/General-Optimization-Solver/src/solvers/mmrcpsp.py:42(stream:109:1253): Warning: Cumulative expression 'pulse': height is zero, expression is zero everywhere.
                                                                                                  VarCumulAtom_251 = pulse(task_17_mode_0, 0)
 ! --------------------------------------------------- CP Optimizer 20.1.0.0 --
 ! Minimization problem - 69 variables, 51 constraints
 ! TimeLimit            = 60
 ! Workers              = 14
 ! LogVerbosity         = Terse
 ! Initial process time : 0.02s (0.02s extraction + 0.00s propagation)
 !  . Log search space  : 161.2 (before), 161.2 (after)
 !  . Memory usage      : 754.6 kB (before), 754.6 kB (after)
 ! Using parallel search with 14 workers.
 ! ----------------------------------------------------------------------------
 !          Best Branches  Non-fixed    W       Branch decision
                        0         69                 -
 + New bound is 23
 ! Using iterative diving.
 ! Using temporal relaxation.
 *            37       47  0.37s        1      (gap is 37.84%)
 *            35      109  0.37s        1      (gap is 34.29%)
 *            34      149  0.37s        1      (gap is 32.35%)
 *            33      323  0.37s        1      (gap is 30.30%)
 *            28      357  0.37s        1      (gap is 17.86%)
 *            27      376  0.37s        1      (gap is 14.81%)
 *            25      405  0.37s        1      (gap is 8.00%)
 *            24      418  0.37s        1      (gap is 4.17%)
 *            23      547  0.37s        1      (gap is 0.00%)
 ! ----------------------------------------------------------------------------
 ! Search completed, 9 solutions found.
 ! Best objective         : 23 (optimal - effective tol. is 0)
 ! Best bound             : 23
 ! ----------------------------------------------------------------------------
 ! Number of branches     : 64415
 ! Number of fails        : 2813
 ! Total memory usage     : 9.7 MB (9.6 MB CP Optimizer + 0.1 MB Concert)
 ! Time spent in solve    : 0.39s (0.37s engine + 0.02s extraction)
 ! Search speed (br. / s) : 174094.6
 ! ----------------------------------------------------------------------------
task_0: (start=0, end=0, size=0, length=0)
Task 0 is scheduled in mode 0 from 0 to 0
task_1: (start=0, end=7, size=7, length=7)
Task 1 is scheduled in mode 2 from 0 to 7
task_2: (start=0, end=6, size=6, length=6)
Task 2 is scheduled in mode 0 from 0 to 6
task_3: (start=0, end=3, size=3, length=3)
Task 3 is scheduled in mode 0 from 0 to 3
task_4: (start=3, end=4, size=1, length=1)
Task 4 is scheduled in mode 0 from 3 to 4
task_5: (start=6, end=7, size=1, length=1)
Task 5 is scheduled in mode 0 from 6 to 7
task_6: (start=4, end=5, size=1, length=1)
Task 6 is scheduled in mode 0 from 4 to 5
task_7: (start=5, end=6, size=1, length=1)
Task 7 is scheduled in mode 0 from 5 to 6
task_8: (start=7, end=13, size=6, length=6)
Task 8 is scheduled in mode 1 from 7 to 13
task_9: (start=13, end=18, size=5, length=5)
Task 9 is scheduled in mode 1 from 13 to 18
task_10: (start=7, end=16, size=9, length=9)
Task 10 is scheduled in mode 2 from 7 to 16
task_11: (start=5, end=14, size=9, length=9)
Task 11 is scheduled in mode 2 from 5 to 14
task_12: (start=6, end=16, size=10, length=10)
Task 12 is scheduled in mode 2 from 6 to 16
task_13: (start=18, end=20, size=2, length=2)
Task 13 is scheduled in mode 1 from 18 to 20
task_14: (start=14, end=18, size=4, length=4)
Task 14 is scheduled in mode 1 from 14 to 18
task_15: (start=20, end=23, size=3, length=3)
Task 15 is scheduled in mode 1 from 20 to 23
task_16: (start=13, end=16, size=3, length=3)
Task 16 is scheduled in mode 1 from 13 to 16
task_17: (start=23, end=23, size=0, length=0)
Task 17 is scheduled in mode 0 from 23 to 23
Optimal solution found
Objective value: 23
Solution is optimal.
